Maximize

27.5 b0 + 22.5 b1 + 51.5 b2 + 16 b3 + 53.5 b4 + 18.5 b5.v0 + 18.5 b5.v1 + 8 b6 + 10 b7 + 53.5 b8.v0 + 53.5 b8.v1 + 56.5 b9 + 41.0 b10.v0 + 39.0 b10.v1 + 35.0 b11 + 23.5 b12 + 18.5 b13.v0 + 14.5 b13.v1 + 18.5 b13.v2 + 8 b14 + 10 b15 + 54.5 b16 + 6 b17 + 8 b18 + 10 b19 + 18.5 b20 + 8 b21 + 10 b22


Subject to

\ === tcfg constraints ===
dSta_0 = 1
b0 - dSta_0 = 0
b0 - d0_1 = 0
b1 - d0_1 = 0
b1 - d1_2 = 0
b2 - d1_2 = 0
b2 - d2_5 - d2_3 = 0
b3 - d2_3 = 0
b3 - d3_8 - d3_4 = 0
b4 - d3_4 = 0
b4 - d4_8 - d4_5 = 0
b5 - d2_5 - d4_5 = 0
b5 - d5_6 = 0
b6 - d5_6 = 0
b6 - d6_7 = 0
b7 - d6_7 = 0
b8 - d3_8 - d4_8 = 0
b8 - d8_10 - d8_9 = 0
b9 - d8_9 = 0
b9 - d9_10 = 0
b10 - d8_10 - d9_10 = 0
b10 - d10_13 - d10_11 = 0
b11 - d10_11 = 0
b11 - d11_13 - d11_12 = 0
b12 - d11_12 = 0
b12 - d12_16 - d12_13 = 0
b13 - d10_13 - d11_13 - d12_13 = 0
b13 - d13_14 = 0
b14 - d13_14 = 0
b14 - d14_15 = 0
b15 - d14_15 = 0
b16 - d12_16 = 0
b16 - d16_20 - d16_17 = 0
b17 - d16_17 = 0
b17 - d17_18 = 0
b18 - d17_18 = 0
b18 - d18_19 = 0
b19 - d18_19 = 0
b20 - d16_20 = 0
b20 - d20_21 = 0
b21 - d20_21 = 0
b21 - d21_22 = 0
b22 - d21_22 = 0


\ === header constraints ===



\ === context constraints ===
b5 - b5.v0 - b5.v1 = 0
b5.v0 - d2_5 = 0
b5.v1 - d4_5 = 0
b8 - b8.v0 - b8.v1 = 0
b8.v0 - d3_8 = 0
b8.v1 - d4_8 = 0
b10 - b10.v0 - b10.v1 = 0
b10.v0 - d8_10 = 0
b10.v1 - d9_10 = 0
b13 - b13.v0 - b13.v1 - b13.v2 = 0
b13.v0 - d10_13 = 0
b13.v1 - d11_13 = 0
b13.v2 - d12_13 = 0


\ === inst cache constraints ===



\ === data cache constraints ===



Generals


b0
b1
b2
b3
b4
b5
b5.v0
b5.v1
b6
b7
b8
b8.v0
b8.v1
b9
b10
b10.v0
b10.v1
b11
b12
b13
b13.v0
b13.v1
b13.v2
b14
b15
b16
b17
b18
b19
b20
b21
b22
d0_1
d1_2
d2_3
d2_5
d3_4
d3_8
d4_5
d4_8
d5_6
d6_7
d8_9
d8_10
d9_10
d10_11
d10_13
d11_12
d11_13
d12_13
d12_16
d13_14
d14_15
d16_17
d16_20
d17_18
d18_19
d20_21
d21_22
dSta_0


End
\ total cons: 69    total vars: 60
